solution status: optimal solution found
objective value:                     160784.599244249
d11(0,0)                                            1 	(obj:0)
d11(1,1)                                            1 	(obj:0)
d11(2,4)                                            1 	(obj:0)
d11(2,5)                                            1 	(obj:0)
d11(2,6)                                            1 	(obj:0)
d11(2,7)                                            1 	(obj:0)
d11(2,8)                                            1 	(obj:0)
d11(2,9)                                            1 	(obj:0)
d11(2,10)                                           1 	(obj:0)
d11(2,11)                                           1 	(obj:0)
d11(2,12)                                           1 	(obj:0)
d11(4,40)                                           1 	(obj:0)
d11(4,41)                                           1 	(obj:0)
d11(4,42)                                           1 	(obj:0)
d11(4,43)                                           1 	(obj:0)
d11(4,44)                                           1 	(obj:0)
d11(4,45)                                           1 	(obj:0)
d11(4,46)                                           1 	(obj:0)
d11(4,47)                                           1 	(obj:0)
d11(4,49)                                           1 	(obj:0)
d11(4,50)                                           1 	(obj:0)
d11(4,52)                                           1 	(obj:0)
d11(4,53)                                           1 	(obj:0)
d11(4,54)                                           1 	(obj:0)
d11(4,55)                                           1 	(obj:0)
d11(4,56)                                           1 	(obj:0)
d11(4,57)                                           1 	(obj:0)
d11(4,58)                                           1 	(obj:0)
d11(4,59)                                           1 	(obj:0)
d11(4,60)                                           1 	(obj:0)
d11(4,61)                                           1 	(obj:0)
d11(4,62)                                           1 	(obj:0)
d11(4,63)                                           1 	(obj:0)
d11(4,64)                                           1 	(obj:0)
d11(4,65)                                           1 	(obj:0)
d11(4,66)                                           1 	(obj:0)
d11(4,67)                                           1 	(obj:0)
d11(4,68)                                           1 	(obj:0)
d11(4,69)                                           1 	(obj:0)
d11(4,70)                                           1 	(obj:0)
d11(4,71)                                           1 	(obj:0)
d11(4,72)                                           1 	(obj:0)
d11(4,73)                                           1 	(obj:0)
d11(4,74)                                           1 	(obj:0)
d11(4,75)                                           1 	(obj:0)
d11(4,76)                                           1 	(obj:0)
d11(4,77)                                           1 	(obj:0)
d11(4,79)                                           1 	(obj:0)
d11(4,80)                                           1 	(obj:0)
d11(4,81)                                           1 	(obj:0)
d11(4,82)                                           1 	(obj:0)
d11(4,83)                                           1 	(obj:0)
d11(4,85)                                           1 	(obj:0)
d11(4,86)                                           1 	(obj:0)
d11(4,87)                                           1 	(obj:0)
d11(4,88)                                           1 	(obj:0)
d11(4,89)                                           1 	(obj:0)
d11(4,90)                                           1 	(obj:0)
d11(4,91)                                           1 	(obj:0)
d11(4,92)                                           1 	(obj:0)
d11(4,93)                                           1 	(obj:0)
d11(4,94)                                           1 	(obj:0)
d11(4,95)                                           1 	(obj:0)
d11(4,97)                                           1 	(obj:0)
d11(4,98)                                           1 	(obj:0)
d11(4,99)                                           1 	(obj:0)
d11(4,100)                                          1 	(obj:0)
d11(4,101)                                          1 	(obj:0)
d11(4,102)                                          1 	(obj:0)
d11(4,103)                                          1 	(obj:0)
d11(4,104)                                          1 	(obj:0)
d11(4,105)                                          1 	(obj:0)
d11(4,106)                                          1 	(obj:0)
d11(4,107)                                          1 	(obj:0)
d11(4,108)                                          1 	(obj:0)
d11(4,109)                                          1 	(obj:0)
d11(4,110)                                          1 	(obj:0)
d11(4,111)                                          1 	(obj:0)
d11(4,112)                                          1 	(obj:0)
d11(4,113)                                          1 	(obj:0)
d11(4,114)                                          1 	(obj:0)
d11(4,115)                                          1 	(obj:0)
d11(4,116)                                          1 	(obj:0)
d11(4,117)                                          1 	(obj:0)
d11(4,118)                                          1 	(obj:0)
d11(4,119)                                          1 	(obj:0)
d11(4,120)                                          1 	(obj:0)
d12(1,2)                                            1 	(obj:0)
d12(1,3)                                            1 	(obj:0)
d12(3,13)                                           1 	(obj:0)
d12(3,14)                                           1 	(obj:0)
d12(3,15)                                           1 	(obj:0)
d12(3,16)                                           1 	(obj:0)
d12(3,17)                                           1 	(obj:0)
d12(3,18)                                           1 	(obj:0)
d12(3,19)                                           1 	(obj:0)
d12(3,20)                                           1 	(obj:0)
d12(3,21)                                           1 	(obj:0)
d12(3,22)                                           1 	(obj:0)
d12(3,23)                                           1 	(obj:0)
d12(3,24)                                           1 	(obj:0)
d12(3,25)                                           1 	(obj:0)
d12(3,26)                                           1 	(obj:0)
d12(3,27)                                           1 	(obj:0)
d12(3,28)                                           1 	(obj:0)
d12(3,29)                                           1 	(obj:0)
d12(3,30)                                           1 	(obj:0)
d12(3,31)                                           1 	(obj:0)
d12(3,32)                                           1 	(obj:0)
d12(3,33)                                           1 	(obj:0)
d12(3,34)                                           1 	(obj:0)
d12(3,35)                                           1 	(obj:0)
d12(3,36)                                           1 	(obj:0)
d12(3,37)                                           1 	(obj:0)
d12(3,38)                                           1 	(obj:0)
d12(3,39)                                           1 	(obj:0)
d21(2,4)                                            1 	(obj:0)
d21(2,7)                                            1 	(obj:0)
d21(3,13)                                           1 	(obj:0)
d21(3,14)                                           1 	(obj:0)
d21(3,16)                                           1 	(obj:0)
d21(3,22)                                           1 	(obj:0)
d21(4,40)                                           1 	(obj:0)
d21(4,41)                                           1 	(obj:0)
d21(4,42)                                           1 	(obj:0)
d21(4,43)                                           1 	(obj:0)
d21(4,44)                                           1 	(obj:0)
d21(4,45)                                           1 	(obj:0)
d21(4,46)                                           1 	(obj:0)
d21(4,47)                                           1 	(obj:0)
d21(4,49)                                           1 	(obj:0)
d21(4,50)                                           1 	(obj:0)
d21(4,51)                                           1 	(obj:0)
d21(4,52)                                           1 	(obj:0)
d21(4,53)                                           1 	(obj:0)
d21(4,55)                                           1 	(obj:0)
d21(4,58)                                           1 	(obj:0)
d21(4,59)                                           1 	(obj:0)
d21(4,61)                                           1 	(obj:0)
d21(4,67)                                           1 	(obj:0)
d21(4,68)                                           1 	(obj:0)
d21(4,69)                                           1 	(obj:0)
d21(4,70)                                           1 	(obj:0)
d21(4,71)                                           1 	(obj:0)
d21(4,73)                                           1 	(obj:0)
d21(4,74)                                           1 	(obj:0)
d21(4,76)                                           1 	(obj:0)
d21(4,77)                                           1 	(obj:0)
d21(4,79)                                           1 	(obj:0)
d21(4,80)                                           1 	(obj:0)
d21(4,82)                                           1 	(obj:0)
d21(4,85)                                           1 	(obj:0)
d21(4,94)                                           1 	(obj:0)
d21(4,95)                                           1 	(obj:0)
d21(4,97)                                           1 	(obj:0)
d21(4,98)                                           1 	(obj:0)
d21(4,100)                                          1 	(obj:0)
d21(4,103)                                          1 	(obj:0)
d21(4,106)                                          1 	(obj:0)
STE(1,1)                             4946.12292227988 	(obj:0)
STE(0,0)                                         6300 	(obj:0)
STE(1,2)                             5798.35785512984 	(obj:0)
STE(1,3)                             6839.27948897988 	(obj:0)
STE(2,4)                             407.765067150035 	(obj:0)
STE(2,5)                             1404.53107048333 	(obj:0)
STE(2,6)                              2621.9832738167 	(obj:0)
STE(2,7)                                         1260 	(obj:0)
STE(2,8)                             2256.76600333329 	(obj:0)
STE(2,9)                             3474.21820666667 	(obj:0)
STE(2,10)                            2300.92163385004 	(obj:0)
STE(2,11)                            3297.68763718333 	(obj:0)
STE(2,12)                            4515.13984051671 	(obj:0)
STE(3,13)                            91.5296333000842 	(obj:0)
STE(3,14)                            943.764566150048 	(obj:0)
STE(3,15)                            1984.68620000009 	(obj:0)
STE(3,16)                            1088.29563663338 	(obj:0)
STE(3,17)                            1940.53056948334 	(obj:0)
STE(3,18)                            2981.45220333338 	(obj:0)
STE(3,19)                            2305.74783996675 	(obj:0)
STE(3,20)                            3157.98277281672 	(obj:0)
STE(3,21)                            4198.90440666675 	(obj:0)
STE(3,22)                            943.764566150049 	(obj:0)
STE(3,23)                            1795.99949900001 	(obj:0)
STE(3,24)                            2836.92113285005 	(obj:0)
STE(3,25)                            1940.53056948334 	(obj:0)
STE(3,26)                             2792.7655023333 	(obj:0)
STE(3,27)                            3833.68713618334 	(obj:0)
STE(3,28)                            3157.98277281672 	(obj:0)
STE(3,29)                            4010.21770566668 	(obj:0)
STE(3,30)                            5051.13933951672 	(obj:0)
STE(3,31)                            1984.68620000009 	(obj:0)
STE(3,32)                            2836.92113285005 	(obj:0)
STE(3,33)                            3877.84276670009 	(obj:0)
STE(3,34)                            2981.45220333338 	(obj:0)
STE(3,35)                            3833.68713618334 	(obj:0)
STE(3,36)                            4874.60877003338 	(obj:0)
STE(3,37)                            4198.90440666676 	(obj:0)
STE(3,38)                            5051.13933951672 	(obj:0)
STE(3,39)                            6092.06097336676 	(obj:0)
STE(4,40)                           -2626.68857336658 	(obj:0)
STE(4,41)                           -1629.92257003329 	(obj:0)
STE(4,42)                           -412.470366699916 	(obj:0)
STE(4,43)                           -1774.45364051662 	(obj:0)
STE(4,44)                            -777.68763718333 	(obj:0)
STE(4,45)                            439.764566150048 	(obj:0)
STE(4,46)                           -733.532006666583 	(obj:0)
STE(4,47)                            263.233996666708 	(obj:0)
STE(4,48)                            1480.68620000009 	(obj:0)
STE(4,49)                           -1629.92257003329 	(obj:0)
STE(4,50)                           -633.156566700001 	(obj:0)
STE(4,51)                            584.295636633376 	(obj:0)
STE(4,52)                           -777.687637183328 	(obj:0)
STE(4,53)                            219.078366149963 	(obj:0)
STE(4,54)                            1436.53056948334 	(obj:0)
STE(4,55)                            263.233996666709 	(obj:0)
STE(4,56)                                        1260 	(obj:0)
STE(4,57)                            2477.45220333338 	(obj:0)
STE(4,58)                           -412.470366699915 	(obj:0)
STE(4,59)                            584.295636633375 	(obj:0)
STE(4,60)                            1801.74783996675 	(obj:0)
STE(4,61)                            439.764566150048 	(obj:0)
STE(4,62)                            1436.53056948334 	(obj:0)
STE(4,63)                            2653.98277281672 	(obj:0)
STE(4,64)                            1480.68620000009 	(obj:0)
STE(4,65)                            2477.45220333338 	(obj:0)
STE(4,66)                            3694.90440666676 	(obj:0)
STE(4,67)                           -1774.45364051662 	(obj:0)
STE(4,68)                           -777.687637183329 	(obj:0)
STE(4,69)                            439.764566150049 	(obj:0)
STE(4,70)                           -922.218707666656 	(obj:0)
STE(4,71)                            74.5472956666348 	(obj:0)
STE(4,72)                            1291.99949900001 	(obj:0)
STE(4,73)                            118.702926183382 	(obj:0)
STE(4,74)                            1115.46892951667 	(obj:0)
STE(4,75)                            2332.92113285005 	(obj:0)
STE(4,76)                           -777.687637183329 	(obj:0)
STE(4,77)                            219.078366149962 	(obj:0)
STE(4,78)                            1436.53056948334 	(obj:0)
STE(4,79)                            74.5472956666351 	(obj:0)
STE(4,80)                            1071.31329899993 	(obj:0)
STE(4,81)                             2288.7655023333 	(obj:0)
STE(4,82)                            1115.46892951667 	(obj:0)
STE(4,83)                            2112.23493284996 	(obj:0)
STE(4,84)                            3329.68713618334 	(obj:0)
STE(4,85)                            439.764566150049 	(obj:0)
STE(4,86)                            1436.53056948334 	(obj:0)
STE(4,87)                            2653.98277281672 	(obj:0)
STE(4,88)                            1291.99949900001 	(obj:0)
STE(4,89)                             2288.7655023333 	(obj:0)
STE(4,90)                            3506.21770566668 	(obj:0)
STE(4,91)                            2332.92113285005 	(obj:0)
STE(4,92)                            3329.68713618334 	(obj:0)
STE(4,93)                            4547.13933951672 	(obj:0)
STE(4,94)                            -733.53200666658 	(obj:0)
STE(4,95)                             263.23399666671 	(obj:0)
STE(4,96)                            1480.68620000009 	(obj:0)
STE(4,97)                            118.702926183383 	(obj:0)
STE(4,98)                            1115.46892951667 	(obj:0)
STE(4,99)                            2332.92113285005 	(obj:0)
STE(4,100)                           1159.62456003335 	(obj:0)
STE(4,101)                           2156.39056336671 	(obj:0)
STE(4,102)                           3373.84276670009 	(obj:0)
STE(4,103)                           263.233996666709 	(obj:0)
STE(4,104)                                       1260 	(obj:0)
STE(4,105)                           2477.45220333338 	(obj:0)
STE(4,106)                           1115.46892951667 	(obj:0)
STE(4,107)                           2112.23493284996 	(obj:0)
STE(4,108)                           3329.68713618334 	(obj:0)
STE(4,109)                           2156.39056336671 	(obj:0)
STE(4,110)                               3153.1565667 	(obj:0)
STE(4,111)                           4370.60877003338 	(obj:0)
STE(4,112)                           1480.68620000009 	(obj:0)
STE(4,113)                           2477.45220333338 	(obj:0)
STE(4,114)                           3694.90440666676 	(obj:0)
STE(4,115)                           2332.92113285005 	(obj:0)
STE(4,116)                           3329.68713618334 	(obj:0)
STE(4,117)                           4547.13933951672 	(obj:0)
STE(4,118)                           3373.84276670009 	(obj:0)
STE(4,119)                           4370.60877003338 	(obj:0)
STE(4,120)                           5588.06097336676 	(obj:0)
y1(4,100)                                 1992.796386 	(obj:0)
y1(4,101)                            1095.70698300004 	(obj:0)
y1(4,103)                                 1992.796386 	(obj:0)
y1(4,104)                            1095.70698300004 	(obj:0)
y1(4,106)                                 1992.796386 	(obj:0)
y1(4,107)                            1095.70698300004 	(obj:0)
y1(4,109)                                 1992.796386 	(obj:0)
y1(4,110)                            1095.70698300004 	(obj:0)
y1(4,112)                                 1992.796386 	(obj:0)
y1(4,113)                            1095.70698300004 	(obj:0)
y1(4,115)                                 1992.796386 	(obj:0)
y1(4,116)                            1095.70698300004 	(obj:0)
y1(4,118)                                 1992.796386 	(obj:0)
y1(4,119)                            1095.70698300004 	(obj:0)
WB(3)                                 3399.3204933139 	(obj:0)
AVE(3)                                3399.3204933139 	(obj:0)
AVE(4)                               3353.21046544222 	(obj:0)
WG(4)                                3353.21046544222 	(obj:10)
BG(1)                                3242.95200708989 	(obj:10)
BG(2)                                6167.47517001719 	(obj:10)
BG(3)                                2172.11439731676 	(obj:10)
BG(4)                                1142.70788455777 	(obj:10)
WB(1)                                3134.60043707458 	(obj:0)
AVE(1)                               3134.60043707458 	(obj:0)
WB(2)                                3326.45170866643 	(obj:0)
AVE(2)                               3326.45170866643 	(obj:0)
y1(1,1)                              764.889369948111 	(obj:0)
y1(2,4)                              3630.92206961686 	(obj:0)
y1(2,5)                               2733.8326666169 	(obj:0)
y1(2,6)                              1638.12568361686 	(obj:0)
y1(2,7)                              3630.92206961686 	(obj:0)
y1(2,8)                               2733.8326666169 	(obj:0)
y1(2,9)                              1638.12568361686 	(obj:0)
y1(2,10)                             3630.92206961686 	(obj:0)
y1(2,11)                              2733.8326666169 	(obj:0)
y1(2,12)                             1638.12568361686 	(obj:0)
y1(4,40)                                  1992.796386 	(obj:0)
y1(4,41)                             1095.70698300004 	(obj:0)
y1(4,43)                                  1992.796386 	(obj:0)
y1(4,44)                             1095.70698300004 	(obj:0)
y1(4,46)                                  1992.796386 	(obj:0)
y1(4,47)                             1095.70698300004 	(obj:0)
y1(4,49)                                  1992.796386 	(obj:0)
y1(4,50)                             1095.70698300004 	(obj:0)
y1(4,52)                                  1992.796386 	(obj:0)
y1(4,53)                             1095.70698300004 	(obj:0)
y1(4,55)                                  1992.796386 	(obj:0)
y1(4,56)                             1095.70698300004 	(obj:0)
y1(4,58)                                  1992.796386 	(obj:0)
y1(4,59)                             1095.70698300004 	(obj:0)
y1(4,61)                                  1992.796386 	(obj:0)
y1(4,62)                             1095.70698300004 	(obj:0)
y1(4,64)                                  1992.796386 	(obj:0)
y1(4,65)                             1095.70698300004 	(obj:0)
y1(4,67)                                  1992.796386 	(obj:0)
y1(4,68)                             1095.70698300004 	(obj:0)
y1(4,70)                                  1992.796386 	(obj:0)
y1(4,71)                             1095.70698300004 	(obj:0)
y1(4,73)                                  1992.796386 	(obj:0)
y1(4,74)                             1095.70698300004 	(obj:0)
y1(4,76)                                  1992.796386 	(obj:0)
y1(4,77)                             1095.70698300004 	(obj:0)
y1(4,79)                                  1992.796386 	(obj:0)
y1(4,80)                             1095.70698300004 	(obj:0)
y1(4,82)                                  1992.796386 	(obj:0)
y1(4,83)                             1095.70698300004 	(obj:0)
y1(4,85)                                  1992.796386 	(obj:0)
y1(4,86)                             1095.70698300004 	(obj:0)
y1(4,88)                                  1992.796386 	(obj:0)
y1(4,89)                             1095.70698300004 	(obj:0)
y1(4,91)                                  1992.796386 	(obj:0)
y1(4,92)                             1095.70698300004 	(obj:0)
y1(4,94)                                  1992.796386 	(obj:0)
y1(4,95)                             1095.70698300004 	(obj:0)
y1(4,97)                                  1992.796386 	(obj:0)
y1(4,98)                             1095.70698300004 	(obj:0)
y2(1,2)                              2.48195276825487 	(obj:0)
y2(1,3)                              1098.18893576829 	(obj:0)
y2(3,13)                             197.646911736894 	(obj:0)
y2(3,14)                             1094.73631473686 	(obj:0)
y2(3,15)                              2190.4432977369 	(obj:0)
y2(3,16)                             197.646911736894 	(obj:0)
y2(3,17)                             1094.73631473686 	(obj:0)
y2(3,18)                              2190.4432977369 	(obj:0)
y2(3,19)                             197.646911736894 	(obj:0)
y2(3,20)                             1094.73631473686 	(obj:0)
y2(3,21)                              2190.4432977369 	(obj:0)
y2(3,22)                             197.646911736894 	(obj:0)
y2(3,23)                             1094.73631473686 	(obj:0)
y2(3,24)                              2190.4432977369 	(obj:0)
y2(3,25)                             197.646911736894 	(obj:0)
y2(3,26)                             1094.73631473686 	(obj:0)
y2(3,27)                              2190.4432977369 	(obj:0)
y2(3,28)                             197.646911736894 	(obj:0)
y2(3,29)                             1094.73631473686 	(obj:0)
y2(3,30)                              2190.4432977369 	(obj:0)
y2(3,31)                             197.646911736894 	(obj:0)
y2(3,32)                             1094.73631473686 	(obj:0)
y2(3,33)                              2190.4432977369 	(obj:0)
y2(3,34)                             197.646911736894 	(obj:0)
y2(3,35)                             1094.73631473686 	(obj:0)
y2(3,36)                              2190.4432977369 	(obj:0)
y2(3,37)                             197.646911736894 	(obj:0)
y2(3,38)                             1094.73631473686 	(obj:0)
y2(3,39)                              2190.4432977369 	(obj:0)
